c FILE /home/rafael/Documents/HappySet/MIHS/inputs/happygen/output/graph_d_regular_k4_p0.4_v100_20241127_084033.txt
c SOURCE This is a d-regular graph formed for the happy graph colouring problem.
c DESCRIPTION It was generated using the problem generator of Rhyd Lewis
c
c GRAPH STATS
c Seed                             = -1435834538
c Number of Nodes                  = 100
c Number of colours k              = 4
c Number of pre-assignments        = 40
c Degree of all vertices           = 6
c Density                          = 0.0606061
c 
c The degrees of nodes 1 to 100, respectively, are as follows 
c [6, 6, 6, 6, 6, 6, 6, 6, 6, 6, 6, 6, 6, 6, 6, 6, 6, 6, 6, 6, 6, 6, 6, 6, 6, 6, 
c  6, 6, 6, 6, 6, 6, 6, 6, 6, 6, 6, 6, 6, 6, 6, 6, 6, 6, 6, 6, 6, 6, 6, 6, 6, 
c  6, 6, 6, 6, 6, 6, 6, 6, 6, 6, 6, 6, 6, 6, 6, 6, 6, 6, 6, 6, 6, 6, 6, 6, 6, 
c  6, 6, 6, 6, 6, 6, 6, 6, 6, 6, 6, 6, 6, 6, 6, 6, 6, 6, 6, 6, 6, 6, 6, 6] 
c  
p edge 100 300 4
e 1 22
e 1 31
e 1 37
e 1 44
e 1 59
e 1 77
e 2 3
e 2 12
e 2 22
e 2 34
e 2 60
e 2 89
e 3 40
e 3 56
e 3 59
e 3 74
e 3 83
e 4 15
e 4 25
e 4 28
e 4 61
e 4 63
e 4 84
e 5 28
e 5 31
e 5 55
e 5 58
e 5 71
e 5 80
e 6 40
e 6 57
e 6 62
e 6 68
e 6 78
e 6 96
e 7 9
e 7 23
e 7 27
e 7 39
e 7 60
e 7 87
e 8 36
e 8 43
e 8 54
e 8 61
e 8 81
e 8 94
e 9 10
e 9 28
e 9 31
e 9 39
e 9 70
e 10 14
e 10 23
e 10 40
e 10 78
e 10 99
e 11 21
e 11 26
e 11 27
e 11 56
e 11 83
e 11 93
e 12 38
e 12 43
e 12 65
e 12 70
e 12 72
e 13 25
e 13 52
e 13 71
e 13 80
e 13 82
e 13 94
e 14 34
e 14 82
e 14 84
e 14 88
e 14 100
e 15 42
e 15 63
e 15 64
e 15 79
e 15 84
e 16 35
e 16 55
e 16 80
e 16 91
e 16 96
e 16 99
e 17 18
e 17 28
e 17 42
e 17 48
e 17 49
e 17 52
e 18 31
e 18 47
e 18 68
e 18 85
e 18 94
e 19 28
e 19 55
e 19 60
e 19 80
e 19 91
e 19 93
e 20 51
e 20 61
e 20 81
e 20 85
e 20 89
e 20 94
e 21 41
e 21 47
e 21 54
e 21 57
e 21 82
e 22 36
e 22 37
e 22 42
e 22 62
e 23 56
e 23 58
e 23 63
e 23 73
e 24 29
e 24 40
e 24 49
e 24 70
e 24 71
e 24 91
e 25 29
e 25 43
e 25 60
e 25 77
e 26 59
e 26 67
e 26 89
e 26 90
e 26 91
e 27 33
e 27 45
e 27 71
e 27 78
e 28 83
e 29 32
e 29 39
e 29 41
e 29 97
e 30 42
e 30 61
e 30 74
e 30 85
e 30 93
e 30 95
e 31 66
e 31 87
e 32 37
e 32 74
e 32 85
e 32 88
e 32 97
e 33 41
e 33 55
e 33 81
e 33 83
e 33 89
e 34 77
e 34 78
e 34 90
e 34 100
e 35 44
e 35 46
e 35 61
e 35 97
e 35 99
e 36 64
e 36 86
e 36 87
e 36 90
e 37 40
e 37 63
e 37 92
e 38 43
e 38 52
e 38 64
e 38 66
e 38 96
e 39 56
e 39 63
e 39 69
e 40 53
e 41 45
e 41 65
e 41 97
e 42 45
e 42 89
e 43 62
e 43 67
e 44 49
e 44 58
e 44 98
e 44 100
e 45 47
e 45 49
e 45 96
e 46 47
e 46 48
e 46 51
e 46 53
e 46 82
e 47 51
e 47 67
e 48 54
e 48 64
e 48 77
e 48 88
e 49 75
e 49 100
e 50 54
e 50 59
e 50 73
e 50 86
e 50 92
e 50 98
e 51 61
e 51 72
e 51 97
e 52 53
e 52 72
e 52 91
e 53 57
e 53 68
e 53 99
e 54 57
e 54 92
e 55 62
e 55 80
e 56 79
e 56 87
e 57 68
e 57 75
e 58 75
e 58 77
e 58 95
e 59 79
e 59 93
e 60 83
e 60 96
e 62 86
e 62 90
e 63 90
e 64 71
e 64 75
e 65 69
e 65 79
e 65 81
e 65 88
e 66 76
e 66 91
e 66 95
e 66 99
e 67 70
e 67 73
e 67 100
e 68 82
e 68 87
e 69 76
e 69 84
e 69 88
e 69 100
e 70 80
e 70 90
e 71 92
e 72 87
e 72 94
e 72 99
e 73 74
e 73 76
e 73 81
e 74 86
e 74 94
e 75 76
e 75 79
e 76 83
e 76 98
e 77 95
e 78 97
e 78 98
e 79 93
e 81 88
e 82 86
e 84 85
e 84 86
e 85 89
e 92 95
e 92 96
e 93 98
e 95 98
n 4 3
n 7 2
n 9 2
n 10 2
n 12 2
n 15 3
n 18 2
n 20 2
n 21 2
n 22 3
n 26 2
n 29 4
n 31 2
n 35 2
n 36 3
n 40 2
n 43 2
n 46 2
n 47 2
n 50 1
n 51 2
n 52 3
n 55 3
n 56 4
n 58 4
n 68 2
n 69 1
n 70 2
n 75 4
n 77 4
n 81 2
n 82 2
n 85 2
n 92 1
n 93 1
n 94 2
n 96 1
n 98 1
n 99 2
n 100 1
